c This is an instance of the heur track of PACE 2020 Challenge, see https://pacechallenge.org/2020/ 
c TYPE: infrastructure 
c ORIGIN: Open street maps 
c DESCRIPTION: Oleszno (Poland): a road network downloaded from open street maps using osmnx Python package 
p tdp 114 143
1 100
1 8
1 16
2 90
2 91
2 80
3 53
3 16
3 6
3 56
4 13
4 8
4 6
5 11
5 30
6 13
7 42
7 23
8 12
9 14
9 11
10 14
10 40
10 15
11 82
12 14
12 51
13 50
13 40
15 35
15 19
16 58
17 19
18 86
18 83
18 108
19 20
20 81
20 83
21 36
21 46
21 35
21 37
22 69
22 70
22 23
23 65
24 91
24 25
24 26
25 28
25 26
26 29
27 28
27 91
27 30
28 31
29 32
30 31
31 32
33 34
34 38
35 45
36 86
36 37
37 109
38 75
39 40
39 45
39 49
41 54
41 43
41 88
42 111
42 88
43 44
43 60
44 92
44 93
45 47
46 47
46 48
47 49
48 52
48 50
49 50
52 53
52 87
53 87
54 87
54 114
55 56
56 57
57 59
57 58
58 78
59 61
59 60
60 64
61 63
61 78
62 63
63 79
64 79
64 93
66 68
66 79
66 78
67 71
68 101
68 72
69 73
69 70
70 94
71 103
71 72
72 103
73 95
73 101
73 93
74 75
75 100
76 77
77 97
77 96
83 85
84 85
85 86
88 89
94 95
95 96
96 98
99 108
101 102
104 105
105 107
105 109
106 107
107 108
109 113
110 111
111 113
112 113
